========================================================== 
File name: C:\DEGR\assets\definitions\MSRCPSP_Gen\100_10_64_10_D.def
Creation date: Wed May 03 10:38:22 CEST 2023
Website: http://imopse.ii.pwr.edu.pl/ 
Reference: 
Myszkowski P. B., Skowronski M. E., Olech L., Oslizlo K., 
Hybrid Ant Colony Optimization in solving Multi-Skill Resource-Constrained Project Scheduling Problem, 
Soft Computing, DOI: DOI 10.1007/s00500-014-1455-x 
========================================================== 
General characteristics: 
Tasks: 100
Resources: 10
Precedence relations: 59
Number of skill types: 10
========================================================== 
ResourceID 	 Salary 	 Skills 
1	 	 	52.3	 	 Q3: 0 	  Q5: 3 	  Q2: 0 	  Q1: 0 	  Q7: 1 	  Q4: 3 	  Q8: 3 	 
2	 	 	27.5	 	 Q6: 2 	  Q5: 3 	  Q9: 3 	  Q3: 1 	  Q8: 1 	  Q0: 0 	  Q4: 0 	  Q1: 2 	 
3	 	 	76.5	 	 Q8: 0 	  Q0: 2 	  Q9: 2 	  Q1: 1 	  Q4: 2 	 
4	 	 	87.3	 	 Q0: 2 	 
5	 	 	85.3	 	 Q9: 2 	  Q7: 3 	  Q0: 3 	  Q3: 3 	  Q6: 2 	  Q5: 0 	  Q4: 3 	  Q2: 3 	  Q8: 0 	 
6	 	 	95.3	 	 Q3: 1 	  Q8: 1 	 
7	 	 	99.0	 	 Q7: 2 	  Q2: 2 	  Q6: 0 	  Q1: 2 	  Q0: 1 	  Q5: 1 	  Q3: 1 	  Q4: 3 	 
8	 	 	86.7	 	 Q7: 2 	  Q6: 3 	  Q9: 3 	 
9	 	 	16.6	 	 Q6: 3 	  Q1: 3 	  Q7: 1 	  Q0: 0 	 
10	 	 	61.1	 	 Q7: 0 	  Q4: 3 	  Q9: 0 	  Q1: 2 	  Q8: 1 	 
========================================================== 
TaskID 	 Duration 	 Skill 	 Predecessor IDs 
1	13	Q8:	1
2	29	Q5:	3
3	26	Q0:	3
4	18	Q0:	0
5	13	Q2:	0
6	11	Q0:	2
7	18	Q7:	3	3
8	30	Q9:	3
9	39	Q9:	3
10	35	Q8:	1
11	9	Q6:	3
12	40	Q1:	1
13	39	Q3:	0	6	11
14	9	Q4:	0
15	29	Q0:	3
16	17	Q0:	0
17	34	Q2:	3
18	31	Q1:	3
19	17	Q1:	2	2
20	23	Q0:	1
21	20	Q9:	0
22	39	Q8:	0
23	22	Q7:	1
24	10	Q1:	0
25	31	Q0:	3
26	31	Q7:	1
27	15	Q7:	3
28	28	Q2:	0
29	26	Q4:	3	21
30	34	Q9:	3	18
31	40	Q1:	0	19
32	32	Q1:	3
33	31	Q3:	0	13	30
34	27	Q0:	2
35	13	Q7:	2
36	20	Q7:	2
37	28	Q2:	0
38	13	Q4:	0
39	30	Q7:	0	24	28
40	33	Q3:	0
41	39	Q1:	2
42	32	Q9:	3	18
43	25	Q0:	0
44	32	Q2:	3
45	38	Q6:	3	35
46	38	Q0:	1	19
47	16	Q3:	3	26
48	39	Q4:	0
49	26	Q8:	0	16
50	34	Q3:	3	33	29
51	17	Q5:	1
52	32	Q0:	1	17
53	39	Q0:	1	6	12
54	18	Q6:	2
55	20	Q1:	1
56	23	Q7:	3	55	53
57	21	Q3:	1
58	16	Q3:	1	55
59	39	Q4:	3	57
60	15	Q0:	1
61	18	Q2:	2	45
62	15	Q6:	2	42
63	33	Q2:	0	59
64	32	Q1:	1	34	6
65	14	Q8:	3	29
66	23	Q8:	0	17	39
67	13	Q8:	1	62	31
68	12	Q5:	3	7
69	10	Q2:	0	2
70	27	Q8:	1
71	23	Q8:	3	70	53	14
72	15	Q9:	0
73	9	Q2:	0
74	36	Q1:	2
75	10	Q8:	0
76	36	Q1:	2
77	15	Q1:	0
78	30	Q3:	1	47
79	40	Q6:	2	9	66
80	35	Q8:	0
81	30	Q2:	3
82	16	Q0:	2	25
83	40	Q7:	3
84	34	Q4:	3	65
85	10	Q6:	3	73
86	31	Q0:	0
87	39	Q9:	2
88	17	Q5:	3	83
89	14	Q1:	2	41
90	25	Q4:	0	84
91	21	Q1:	0
92	31	Q9:	2	65
93	30	Q1:	3
94	36	Q1:	3	34
95	10	Q7:	1
96	21	Q9:	2	85	3	48
97	15	Q5:	1
98	30	Q6:	0	54
99	30	Q1:	3	79
100	32	Q9:	3	35	52	9
========================================================== 